Food = {Beef,Chicken,Pork,Salmon,Shrimp,Squid,Tuna,Oyster,Mussel,Crab,Basa,Lamb,Duck,Egg,Greek Yogurt,Peanut,Milk};
fibre = [0.45,0.45,0.45,0.45,0.45,0.45,0.45,0.45,0.45,0.45,0.45,0.45,0.45,0.45,0.45,9.00,0.45];
sugar = [0.45,0.45,0.45,0.45,0.45,0.45,0.45,0.45,0.45,0.45,0.45,0.45,0.45,1.10,3.60,4.00,5.00];
cost = [3.30,1.60,2.20,3.30,2.80,1.50,2.30,1.08,0.70,2.50,1.92,1.00,2.72,0.80,0.53,1.20,0.17];
satfat = [5.90,3.79,5.23,3.10,0.26,0.36,1.26,1.22,0.43,0.09,1.50,8.83,9.67,11.00,0.40,49.00,1.00];
protein = [25.93,27.30,27.32,20.42,13.61,15.58,23.33,21.55,11.90,18.29,13.27,24.52,18.99,13.00,10.00,26.00,3.40];
